p cnf 50 50
26 6 -40 0
50 -27 9 0
-39 46 37 0
33 21 -36 0
5 -20 1 0
-46 8 1 0
17 -43 23 0
40 1 -47 0
4 38 19 0
2 29 39 0
-2 -4 -24 0
19 -32 -29 0
-25 21 -7 0
13 -29 -30 0
31 -10 33 0
9 -23 -14 0
46 -31 -22 0
-23 49 16 0
-29 -8 27 0
49 -27 -37 0
-9 48 45 0
9 19 49 0
33 -32 -24 0
35 -18 -15 0
-22 -8 -41 0
42 35 -1 0
-50 19 -9 0
48 25 -12 0
-39 12 -41 0
-41 -18 -33 0
12 -31 6 0
-21 -28 -45 0
42 -34 4 0
1 48 12 0
34 4 -29 0
28 4 11 0
-1 -50 -25 0
37 48 21 0
-7 20 37 0
-3 -23 13 0
19 -17 -20 0
-31 -19 18 0
27 -29 -45 0
-33 7 -49 0
15 38 6 0
30 43 -20 0
24 -23 -17 0
-5 -50 25 0
-12 41 -26 0
-5 -8 -27 0
